100 8
807 379
444 521
412 448
489 785
501 694
103 888
371 713
483 556
236 886
872 343
749 787
476 717
567 413
462 636
897 235
733 413
887 360
632 438
212 807
818 343
609 439
850 626
215 445
671 364
533 720
178 705
455 826
439 245
849 512
454 645
491 176
363 773
435 573
806 596
146 813
334 508
262 696
64 933
410 751
189 368
305 830
889 250
537 173
724 432
183 820
510 547
527 387
255 482
114 722
144 394
243 856
226 360
311 398
790 433
789 353
262 709
313 370
230 779
757 487
774 377
751 396
746 519
396 506
218 312
526 549
849 561
261 398
145 417
399 644
545 392
205 690
474 263
187 452
117 615
623 380
399 829
885 325
911 706
676 247
116 899
337 586
813 540
161 901
639 408
99 721
495 542
226 656
790 584
158 390
741 420
747 451
370 786
751 263
242 743
673 438
38 743
184 747
811 559
244 947
439 768
